# Solution for model Master Problem
# Objective value = 1.2461601802480777e+03
theta[1] 1
theta[2] 1
theta[3] 1
theta[4] 1
theta[5] 1
theta[6] 1
theta[7] 1
theta[8] 1
theta[9] 1
theta[10] 1
theta[11] 1
theta[12] 1
theta[13] 1
theta[14] 1
theta[15] 1
theta[16] 1
theta[17] 1
theta[18] 1
theta[19] 1
theta[20] 1
theta[21] 1
theta[22] 1
theta[23] 1
theta[24] 1
theta[25] 1
